c A SAT instance generated from a 3-CNF formula that had 44 clauses and 11 variables
p cnf 11 44
-11 -5 -6 0
-7 -3 6 0
3 -6 1 0
-7 2 -5 0
-11 4 -5 0
10 -4 -6 0
9 -2 6 0
-10 11 3 0
-8 -11 6 0
10 -9 5 0
8 5 4 0
7 -2 11 0
-4 -7 -3 0
-9 2 3 0
-5 1 4 0
8 2 -7 0
4 7 5 0
4 -5 9 0
-3 -6 9 0
1 -3 8 0
-6 9 10 0
5 11 -10 0
4 -5 11 0
-4 11 -2 0
-11 4 10 0
-11 -9 4 0
9 -1 -7 0
-7 -4 3 0
11 3 8 0
5 3 -8 0
5 -10 -6 0
2 -4 -10 0
-8 2 9 0
-6 1 -11 0
2 -4 6 0
7 1 -2 0
-6 -8 -11 0
9 -2 -8 0
9 -4 3 0
11 -2 -6 0
5 2 -9 0
9 -10 -6 0
3 11 9 0
-4 -10 2 0
